p cnf 11 30
-2 -3 -7 10 -4 -9 -1 -5 0
9 11 10 -2 -8 3 6 -4 1 5 7 0
8 11 -4 9 7 5 2 10 6 3 1 0
7 3 -4 6 -10 9 2 11 0
-5 -1 -4 -11 8 -7 -6 0
6 10 7 0
6 1 0
-3 8 0
9 2 -7 8 -10 -3 -4 1 0
-10 -8 4 -6 -5 0
8 2 0
-7 -5 0
11 5 2 -9 0
-1 10 5 8 3 4 0
-8 -9 0
1 3 8 -11 0
10 -2 1 -6 0
-7 10 -9 -1 5 -11 3 0
-4 -6 -1 2 8 7 0
2 4 0
3 8 0
10 -8 0
-5 11 0
10 -6 0
5 10 9 6 -7 -4 -11 8 0
8 -3 -1 9 5 11 -7 2 -4 -10 6 0
3 -5 0
10 -1 -4 -11 -7 8 3 9 2 0
1 -10 9 8 0
1 -10 -6 0
